p tdp 33 63
12 21
15 30
19 22
5 6
16 25
2 22
8 32
21 33
4 9
1 4
24 28
11 23
8 13
4 20
14 21
24 26
7 27
5 29
17 18
7 14
3 12
2 18
7 31
10 13
5 10
15 16
22 33
12 23
20 29
25 28
27 32
11 25
23 32
5 26
11 14
9 23
10 19
12 25
8 10
16 32
19 29
20 25
4 15
25 27
2 8
8 33
3 6
20 26
18 29
5 33
8 20
22 24
28 30
7 11
2 27
22 26
7 26
19 33
23 28
3 33
2 28
6 13
9 22
